C                                       
1.78355045158
 +4.0000000000  +4.0000000000  +0.0000000000 
 +0.0000000000  +4.0000000000  +4.0000000000 
 +4.0000000000  +0.0000000000  +4.0000000000 
C       Si
 126     1
Cartesian
 +0.0000000000  +0.0000000000  +0.0000000000 
 +0.5000000000  +0.5000000000  +0.5000000000 
 +1.0000000000  +0.0000000000  +1.0000000000 
 +1.5000000000  +0.5000000000  +1.5000000000 
 +0.0000000000  +1.0000000000  +1.0000000000 
 +0.5000000000  +1.5000000000  +1.5000000000 
 +1.0000000000  +1.0000000000  +2.0000000000 
 +1.5000000000  +1.5000000000  +2.5000000000 
 +1.0000000000  +1.0000000000  +0.0000000000 
 +1.5000000000  +1.5000000000  +0.5000000000 
 +2.0000000000  +1.0000000000  +1.0000000000 
 +2.5000000000  +1.5000000000  +1.5000000000 
 +1.0000000000  +2.0000000000  +1.0000000000 
 +1.5000000000  +2.5000000000  +1.5000000000 
 +2.0000000000  +2.0000000000  +2.0000000000 
 +2.5000000000  +2.5000000000  +2.5000000000 
 +2.0000000000  +0.0000000000  +2.0000000000 
 +2.5000000000  +0.5000000000  +2.5000000000 
 +3.0000000000  +0.0000000000  +3.0000000000 
 +3.5000000000  +0.5000000000  +3.5000000000 
 +2.0000000000  +1.0000000000  +3.0000000000 
 +2.5000000000  +1.5000000000  +3.5000000000 
 +3.0000000000  +1.0000000000  +4.0000000000 
 +3.5000000000  +1.5000000000  +4.5000000000 
 +3.0000000000  +1.0000000000  +2.0000000000 
 +3.5000000000  +1.5000000000  +2.5000000000 
 +4.0000000000  +1.0000000000  +3.0000000000 
 +4.5000000000  +1.5000000000  +3.5000000000 
 +3.0000000000  +2.0000000000  +3.0000000000 
 +3.5000000000  +2.5000000000  +3.5000000000 
 +4.0000000000  +2.0000000000  +4.0000000000 
 +4.5000000000  +2.5000000000  +4.5000000000 
 +0.0000000000  +2.0000000000  +2.0000000000 
 +0.5000000000  +2.5000000000  +2.5000000000 
 +1.0000000000  +2.0000000000  +3.0000000000 
 +1.5000000000  +2.5000000000  +3.5000000000 
 +0.0000000000  +3.0000000000  +3.0000000000 
 +0.5000000000  +3.5000000000  +3.5000000000 
 +1.0000000000  +3.0000000000  +4.0000000000 
 +1.5000000000  +3.5000000000  +4.5000000000 
 +1.0000000000  +3.0000000000  +2.0000000000 
 +1.5000000000  +3.5000000000  +2.5000000000 
 +2.0000000000  +3.0000000000  +3.0000000000 
 +2.5000000000  +3.5000000000  +3.5000000000 
 +1.0000000000  +4.0000000000  +3.0000000000 
 +1.5000000000  +4.5000000000  +3.5000000000 
 +2.0000000000  +4.0000000000  +4.0000000000 
 +2.5000000000  +4.5000000000  +4.5000000000 
 +2.0000000000  +2.0000000000  +4.0000000000 
 +2.5000000000  +2.5000000000  +4.5000000000 
 +3.0000000000  +2.0000000000  +5.0000000000 
 +3.5000000000  +2.5000000000  +5.5000000000 
 +2.0000000000  +3.0000000000  +5.0000000000 
 +2.5000000000  +3.5000000000  +5.5000000000 
 +3.0000000000  +3.0000000000  +6.0000000000 
 +3.5000000000  +3.5000000000  +6.5000000000 
 +3.0000000000  +3.0000000000  +4.0000000000 
 +3.5000000000  +3.5000000000  +4.5000000000 
 +4.0000000000  +3.0000000000  +5.0000000000 
 +4.5000000000  +3.5000000000  +5.5000000000 
 +3.0000000000  +4.0000000000  +5.0000000000 
 +3.5000000000  +4.5000000000  +5.5000000000 
 +4.0000000000  +4.0000000000  +6.0000000000 
 +4.5000000000  +4.5000000000  +6.5000000000 
 +2.0000000000  +2.0000000000  +0.0000000000 
 +2.5000000000  +2.5000000000  +0.5000000000 
 +3.0000000000  +2.0000000000  +1.0000000000 
 +3.5000000000  +2.5000000000  +1.5000000000 
 +2.0000000000  +3.0000000000  +1.0000000000 
 +2.5000000000  +3.5000000000  +1.5000000000 
 +3.0000000000  +3.0000000000  +2.0000000000 
 +3.5000000000  +3.5000000000  +2.5000000000 
 +3.0000000000  +3.0000000000  +0.0000000000 
 +3.5000000000  +3.5000000000  +0.5000000000 
 +4.0000000000  +3.0000000000  +1.0000000000 
 +4.5000000000  +3.5000000000  +1.5000000000 
 +3.0000000000  +4.0000000000  +1.0000000000 
 +3.5000000000  +4.5000000000  +1.5000000000 
 +4.0000000000  +4.0000000000  +2.0000000000 
 +4.5000000000  +4.5000000000  +2.5000000000 
 +4.0000000000  +2.0000000000  +2.0000000000 
 +4.5000000000  +2.5000000000  +2.5000000000 
 +5.0000000000  +2.0000000000  +3.0000000000 
 +5.5000000000  +2.5000000000  +3.5000000000 
 +4.0000000000  +3.0000000000  +3.0000000000 
 +4.5000000000  +3.5000000000  +3.5000000000 
 +5.0000000000  +3.0000000000  +4.0000000000 
 +5.5000000000  +3.5000000000  +4.5000000000 
 +5.0000000000  +3.0000000000  +2.0000000000 
 +5.5000000000  +3.5000000000  +2.5000000000 
 +6.0000000000  +3.0000000000  +3.0000000000 
 +6.5000000000  +3.5000000000  +3.5000000000 
 +5.0000000000  +4.0000000000  +3.0000000000 
 +5.5000000000  +4.5000000000  +3.5000000000 
 +6.0000000000  +4.0000000000  +4.0000000000 
 +6.5000000000  +4.5000000000  +4.5000000000 
 +2.0000000000  +4.0000000000  +2.0000000000 
 +2.5000000000  +4.5000000000  +2.5000000000 
 +3.0000000000  +4.0000000000  +3.0000000000 
 +3.5000000000  +4.5000000000  +3.5000000000 
 +2.0000000000  +5.0000000000  +3.0000000000 
 +2.5000000000  +5.5000000000  +3.5000000000 
 +3.0000000000  +5.0000000000  +4.0000000000 
 +3.5000000000  +5.5000000000  +4.5000000000 
 +3.0000000000  +5.0000000000  +2.0000000000 
 +3.5000000000  +5.5000000000  +2.5000000000 
 +4.0000000000  +5.0000000000  +3.0000000000 
 +4.5000000000  +5.5000000000  +3.5000000000 
 +3.0000000000  +6.0000000000  +3.0000000000 
 +3.5000000000  +6.5000000000  +3.5000000000 
 +4.0000000000  +6.0000000000  +4.0000000000 
 +4.5000000000  +6.5000000000  +4.5000000000 
 +5.0000000000  +4.0000000000  +5.0000000000 
 +5.5000000000  +4.5000000000  +5.5000000000 
 +4.0000000000  +5.0000000000  +5.0000000000 
 +4.5000000000  +5.5000000000  +5.5000000000 
 +5.0000000000  +5.0000000000  +6.0000000000 
 +5.5000000000  +5.5000000000  +6.5000000000 
 +5.0000000000  +5.0000000000  +4.0000000000 
 +5.5000000000  +5.5000000000  +4.5000000000 
 +6.0000000000  +5.0000000000  +5.0000000000 
 +6.5000000000  +5.5000000000  +5.5000000000 
 +5.0000000000  +6.0000000000  +5.0000000000 
 +5.5000000000  +6.5000000000  +5.5000000000 
 +6.0000000000  +6.0000000000  +6.0000000000 
 +6.5000000000  +6.5000000000  +6.5000000000 
 +4.0000000000  +4.0000000000  +4.0000000000 
